#######################################
### Exact MIP solver for the HHCRSP ###
#######################################
-- Instance file: new-instances/HHCRSP_100_20_58_0.4_C_C.txt
-- Max threads: 4
-- Time limit: 999999 seconds
-- Use initial solution: No
Trivial flow violations prevented generating 45803 variables.
Model exported.
Version identifier: 20.1.0.0 | 2020-11-10 | 9bedb6d68
CPXPARAM_Threads                                 4
CPXPARAM_TimeLimit                               999999
Parallel mode: deterministic, using up to 4 threads for concurrent optimization:
 * Starting dual Simplex on 1 thread...
 * Starting Barrier on 3 threads...
Tried aggregator 1 time.
LP Presolve eliminated 5388 rows and 1292 columns.
Reduced LP has 50742 rows, 48691 columns, and 577086 nonzeros.
Presolve time = 0.51 sec. (150.24 ticks)
Symmetry aggregator did 63023 additional substitutions.
Initializing dual steep norms . . .

Iteration log . . .
Iteration:     1   Dual objective     =             0.666667

Dual crossover.
  Dual:  Fixing 237 variables.
      236 DMoves:  Infeasibility  4.51305719e-14  Objective  1.85333333e+02
        0 DMoves:  Infeasibility  3.23074959e-14  Objective  1.85333333e+02
  Dual:  Pushed 18, exchanged 219.
  Primal:  Fixing 134 variables.
      133 PMoves:  Infeasibility  2.22044605e-16  Objective  1.85333333e+02
        0 PMoves:  Infeasibility  2.22044605e-16  Objective  1.85333333e+02
  Primal:  Pushed 83, exchanged 51.

Dual simplex solved model.


Solution status from MIP model:
-- Processing time: 0.791 sec.
-- Memory used: 118.426 MB
-- Best bound: inf
-- Obj value: 185.333
-- Gap: inf%
-- Total distance: 556
-- Total tardiness: 0
-- Largest tardiness: 0
